unknown
(model
; cardinality of BoundSet is 2
(declare-sort BoundSet 0)
; rep: @uc_BoundSet_0
; rep: @uc_BoundSet_1
; cardinality of UnboundSet is 1
(declare-sort UnboundSet 0)
(declare-fun groundTerm_3 () UnboundSet)
(define-fun IsOverpowering ((BOUND_VARIABLE_433 BoundSet)) Bool true)
(define-fun IsErodedBy ((BOUND_VARIABLE_433 BoundSet)) Bool true)
(define-fun Occurs ((BOUND_VARIABLE_433 BoundSet)) Bool true)
(define-fun IsGain ((BOUND_VARIABLE_433 BoundSet)) Bool false)
)
sat
(model
; cardinality of BoundSet is 1
(declare-sort BoundSet 0)
; rep: @uc_BoundSet_0
; cardinality of UnboundSet is 1
(declare-sort UnboundSet 0)
(declare-fun groundTerm_6 () UnboundSet)
(define-fun IsOverpowering ((BOUND_VARIABLE_453 BoundSet)) Bool true)
(define-fun IsErodedBy ((BOUND_VARIABLE_453 BoundSet)) Bool true)
(define-fun Occurs ((BOUND_VARIABLE_453 BoundSet)) Bool true)
(define-fun IsGain ((BOUND_VARIABLE_453 BoundSet)) Bool false)
)
